NAME          EXAMPLE
ROWS
  N OBJ
  G R1
  L R2
COLUMNS
    X1 R1 2.0 R2 -1.0
    X1 OBJ 1.5
    X2 R1 1.0 R2 2.0
    X2 OBJ -2.0
RHS
    RHS1 OBJ -4.0
    RHS1 R1 2.0 R2
BOUNDS
    UP BND1 X1 20.0
QUADOBJ
    X1 X1 8.0
    X1 X2 2.0
    X2 X2 10.0
ENDATA
